0 8034693
1 7984484
2 7856925
5 7841604
6 7815487
11 7747379
14 7635668
15 7614869
16 7613644
17 7608580
18 7564546
20 7564479
24 7553780
32 7547140
38 7500448
40 7498147
47 7491443
48 7444448
51 7443572
55 7389141
60 7372995
61 7347008
68 7334535
70 7331098
72 7328955
78 7327536
81 7319709
90 7318981
95 7305053
97 7289249
108 7286483
113 7286308
117 7286230
122 7279282
125 7276279
128 7276048
136 7274030
138 7251013
145 7238520
154 7238471
172 7238415
178 7235897
183 7226903
194 7224845
195 7224747
206 7178415
237 7177148
249 7174135
250 7172874
251 7169625
264 7166336
288 7163216
294 7160127
384 7159943
399 7159846
400 7159142
411 7158897
554 7158489
602 7158366
613 7158231
767 7143801
1056 7143752
1129 7143492
